885132
0,47,36,73,69,31,59,19,20,95,29,76,17,5,74,68,40,55,9,48,92,61,30,12,62,67,79,37,86,75,87,49,35,98,71,54,43,90,52,7,88,84,2,4,63,26,1,96,41,34,82,14,15,81,57,60,66,45,27,33,70,89,58,18,11,16,25,93,39,78,28,50,77,24,72,38,91,83,21,42,23,51,64,53,97,22,10,13,80,85,44,3,65,6,94,46,56,32,8,0